Te4 Pb4                                 
   1.0000000000000000     
     6.4781685304955738   -0.0000004379604567   -0.0000003320803999
    -0.0000004575193196    6.4781688610554857   -0.0000002582783719
    -0.0000003446995493   -0.0000002507564137    6.4781687681122149
   Te   Pb
     4     4
Direct
  0.0000001076025889 -0.0000000403437281  0.0000000361979749
  0.0000000853792676  0.5000000538873347  0.4999999609675317
  0.4999999122031433 -0.0000000622384182  0.4999999846685592
  0.4999998983683760  0.5000000502248919 -0.0000000093576942
  0.0000000435714852 -0.0000000334630520  0.4999999890845537
  0.0000000650513973  0.5000000187213808  0.0000000156987091
  0.4999999420629026 -0.0000000303208545  0.0000000251879745
  0.4999999457608389  0.5000000435324454  0.4999999975523912

  0.00000000E+00  0.00000000E+00  0.00000000E+00
  0.00000000E+00  0.00000000E+00  0.00000000E+00
  0.00000000E+00  0.00000000E+00  0.00000000E+00
  0.00000000E+00  0.00000000E+00  0.00000000E+00
  0.00000000E+00  0.00000000E+00  0.00000000E+00
  0.00000000E+00  0.00000000E+00  0.00000000E+00
  0.00000000E+00  0.00000000E+00  0.00000000E+00
  0.00000000E+00  0.00000000E+00  0.00000000E+00
