Te4 Pb4                                 
   1.0000000000000000     
     6.5238232777408687   -0.0000008086396378   -0.0000008056671824
    -0.0000008172678851    6.5238229264128504   -0.0000008916154418
    -0.0000008361293943   -0.0000009034212464    6.5238238666061239
   Te   Pb
     4     4
Direct
 -0.0000007068361716  0.0000002863944765  0.0000010466834089
 -0.0000007072617097  0.4999997259373914  0.4999989526164987
  0.5000007175641106  0.0000002607331390  0.4999989585889462
  0.5000007139175621  0.4999997403244648  0.0000010361822133
 -0.0000004241316004  0.0000001688944157  0.4999993690347734
 -0.0000004319390098  0.4999998234772113  0.0000006251894362
  0.5000004226138079  0.0000001573594243  0.0000006368662184
  0.5000004160730108  0.4999998368794771  0.4999993748385048

  0.00000000E+00  0.00000000E+00  0.00000000E+00
  0.00000000E+00  0.00000000E+00  0.00000000E+00
  0.00000000E+00  0.00000000E+00  0.00000000E+00
  0.00000000E+00  0.00000000E+00  0.00000000E+00
  0.00000000E+00  0.00000000E+00  0.00000000E+00
  0.00000000E+00  0.00000000E+00  0.00000000E+00
  0.00000000E+00  0.00000000E+00  0.00000000E+00
  0.00000000E+00  0.00000000E+00  0.00000000E+00
