Te4 Pb4
1.0
   6.5417936101197425    0.0000000000000000    0.0000000000000004
   0.0000000000000011    6.5417936101197425    0.0000000000000004
   0.0000000000000000    0.0000000000000000    6.5417936101197425
Te Pb
4 4
direct
   0.0000000000000000    0.0000000000000000    0.0000000000000000 Te2-
   0.0000000000000000    0.5000000000000000    0.5000000000000000 Te2-
   0.5000000000000000    0.0000000000000000    0.5000000000000000 Te2-
   0.5000000000000000    0.5000000000000000    0.0000000000000000 Te2-
   0.0000000000000000    0.0000000000000000    0.5000000000000000 Pb2+
   0.0000000000000000    0.5000000000000000    0.0000000000000000 Pb2+
   0.5000000000000000    0.0000000000000000    0.0000000000000000 Pb2+
   0.5000000000000000    0.5000000000000000    0.5000000000000000 Pb2+
